100
1000
168
168
166
165
165
165
165
165
165
165
165
164
163
163
162
162
162
162
161
160
160
159
159
159
157
157
157
156
156
156
155
154
154
153
153
153
150
150
150
150
148
147
146
146
146
145
145
144
143
143
143
143
142
141
141
141
140
140
139
138
137
136
135
135
135
135
135
133
133
132
131
131
130
130
130
130
129
128
128
128
127
127
125
124
124
124
124
123
121
121
120
120
120
119
119
118
117
117
115
114
